c description: Graph pigeonhole principle formula on fast_gnp_random_graph(10,25,0.9)
c generator: CNFgen (0.9.0)
c copyright: (C) 2012-2020 Massimo Lauria <massimo.lauria@uniroma1.it>
c url: https://massimolauria.net/cnfgen
c
p cnf 228 947
1 2 3 4 5 6 7 8 9 10 11 12 13 14 15 16 17 18 19 20 21 22 0
23 24 25 26 27 28 29 30 31 32 33 34 35 36 37 38 39 40 41 42 43 44 0
45 46 47 48 49 50 51 52 53 54 55 56 57 58 59 60 61 62 63 64 65 66 67 68 69 0
70 71 72 73 74 75 76 77 78 79 80 81 82 83 84 85 86 87 88 89 90 91 92 0
93 94 95 96 97 98 99 100 101 102 103 104 105 106 107 108 109 110 111 112 113 114 115 0
116 117 118 119 120 121 122 123 124 125 126 127 128 129 130 131 132 133 134 135 136 137 138 0
139 140 141 142 143 144 145 146 147 148 149 150 151 152 153 154 155 156 157 158 159 160 161 0
162 163 164 165 166 167 168 169 170 171 172 173 174 175 176 177 178 179 180 181 182 183 184 0
185 186 187 188 189 190 191 192 193 194 195 196 197 198 199 200 201 202 203 204 205 206 0
207 208 209 210 211 212 213 214 215 216 217 218 219 220 221 222 223 224 225 226 227 228 0
-1 -23 0
-1 -45 0
-1 -70 0
-1 -93 0
-1 -116 0
-1 -139 0
-1 -162 0
-1 -185 0
-1 -207 0
-23 -45 0
-23 -70 0
-23 -93 0
-23 -116 0
-23 -139 0
-23 -162 0
-23 -185 0
-23 -207 0
-45 -70 0
-45 -93 0
-45 -116 0
-45 -139 0
-45 -162 0
-45 -185 0
-45 -207 0
-70 -93 0
-70 -116 0
-70 -139 0
-70 -162 0
-70 -185 0
-70 -207 0
-93 -116 0
-93 -139 0
-93 -162 0
-93 -185 0
-93 -207 0
-116 -139 0
-116 -162 0
-116 -185 0
-116 -207 0
-139 -162 0
-139 -185 0
-139 -207 0
-162 -185 0
-162 -207 0
-185 -207 0
-2 -24 0
-2 -46 0
-2 -71 0
-2 -94 0
-2 -117 0
-2 -140 0
-2 -163 0
-2 -208 0
-24 -46 0
-24 -71 0
-24 -94 0
-24 -117 0
-24 -140 0
-24 -163 0
-24 -208 0
-46 -71 0
-46 -94 0
-46 -117 0
-46 -140 0
-46 -163 0
-46 -208 0
-71 -94 0
-71 -117 0
-71 -140 0
-71 -163 0
-71 -208 0
-94 -117 0
-94 -140 0
-94 -163 0
-94 -208 0
-117 -140 0
-117 -163 0
-117 -208 0
-140 -163 0
-140 -208 0
-163 -208 0
-3 -25 0
-3 -47 0
-3 -72 0
-3 -95 0
-3 -118 0
-3 -141 0
-3 -164 0
-3 -186 0
-3 -209 0
-25 -47 0
-25 -72 0
-25 -95 0
-25 -118 0
-25 -141 0
-25 -164 0
-25 -186 0
-25 -209 0
-47 -72 0
-47 -95 0
-47 -118 0
-47 -141 0
-47 -164 0
-47 -186 0
-47 -209 0
-72 -95 0
-72 -118 0
-72 -141 0
-72 -164 0
-72 -186 0
-72 -209 0
-95 -118 0
-95 -141 0
-95 -164 0
-95 -186 0
-95 -209 0
-118 -141 0
-118 -164 0
-118 -186 0
-118 -209 0
-141 -164 0
-141 -186 0
-141 -209 0
-164 -186 0
-164 -209 0
-186 -209 0
-4 -26 0
-4 -48 0
-4 -73 0
-4 -96 0
-4 -119 0
-4 -142 0
-4 -165 0
-4 -187 0
-4 -210 0
-26 -48 0
-26 -73 0
-26 -96 0
-26 -119 0
-26 -142 0
-26 -165 0
-26 -187 0
-26 -210 0
-48 -73 0
-48 -96 0
-48 -119 0
-48 -142 0
-48 -165 0
-48 -187 0
-48 -210 0
-73 -96 0
-73 -119 0
-73 -142 0
-73 -165 0
-73 -187 0
-73 -210 0
-96 -119 0
-96 -142 0
-96 -165 0
-96 -187 0
-96 -210 0
-119 -142 0
-119 -165 0
-119 -187 0
-119 -210 0
-142 -165 0
-142 -187 0
-142 -210 0
-165 -187 0
-165 -210 0
-187 -210 0
-5 -27 0
-5 -49 0
-5 -97 0
-5 -120 0
-5 -143 0
-5 -166 0
-5 -188 0
-5 -211 0
-27 -49 0
-27 -97 0
-27 -120 0
-27 -143 0
-27 -166 0
-27 -188 0
-27 -211 0
-49 -97 0
-49 -120 0
-49 -143 0
-49 -166 0
-49 -188 0
-49 -211 0
-97 -120 0
-97 -143 0
-97 -166 0
-97 -188 0
-97 -211 0
-120 -143 0
-120 -166 0
-120 -188 0
-120 -211 0
-143 -166 0
-143 -188 0
-143 -211 0
-166 -188 0
-166 -211 0
-188 -211 0
-6 -28 0
-6 -50 0
-6 -74 0
-6 -98 0
-6 -121 0
-6 -144 0
-6 -167 0
-6 -189 0
-6 -212 0
-28 -50 0
-28 -74 0
-28 -98 0
-28 -121 0
-28 -144 0
-28 -167 0
-28 -189 0
-28 -212 0
-50 -74 0
-50 -98 0
-50 -121 0
-50 -144 0
-50 -167 0
-50 -189 0
-50 -212 0
-74 -98 0
-74 -121 0
-74 -144 0
-74 -167 0
-74 -189 0
-74 -212 0
-98 -121 0
-98 -144 0
-98 -167 0
-98 -189 0
-98 -212 0
-121 -144 0
-121 -167 0
-121 -189 0
-121 -212 0
-144 -167 0
-144 -189 0
-144 -212 0
-167 -189 0
-167 -212 0
-189 -212 0
-7 -51 0
-7 -75 0
-7 -99 0
-7 -122 0
-7 -145 0
-7 -168 0
-7 -213 0
-51 -75 0
-51 -99 0
-51 -122 0
-51 -145 0
-51 -168 0
-51 -213 0
-75 -99 0
-75 -122 0
-75 -145 0
-75 -168 0
-75 -213 0
-99 -122 0
-99 -145 0
-99 -168 0
-99 -213 0
-122 -145 0
-122 -168 0
-122 -213 0
-145 -168 0
-145 -213 0
-168 -213 0
-8 -29 0
-8 -52 0
-8 -76 0
-8 -123 0
-8 -146 0
-8 -169 0
-8 -190 0
-8 -214 0
-29 -52 0
-29 -76 0
-29 -123 0
-29 -146 0
-29 -169 0
-29 -190 0
-29 -214 0
-52 -76 0
-52 -123 0
-52 -146 0
-52 -169 0
-52 -190 0
-52 -214 0
-76 -123 0
-76 -146 0
-76 -169 0
-76 -190 0
-76 -214 0
-123 -146 0
-123 -169 0
-123 -190 0
-123 -214 0
-146 -169 0
-146 -190 0
-146 -214 0
-169 -190 0
-169 -214 0
-190 -214 0
-9 -30 0
-9 -53 0
-9 -100 0
-9 -124 0
-9 -147 0
-9 -170 0
-9 -191 0
-30 -53 0
-30 -100 0
-30 -124 0
-30 -147 0
-30 -170 0
-30 -191 0
-53 -100 0
-53 -124 0
-53 -147 0
-53 -170 0
-53 -191 0
-100 -124 0
-100 -147 0
-100 -170 0
-100 -191 0
-124 -147 0
-124 -170 0
-124 -191 0
-147 -170 0
-147 -191 0
-170 -191 0
-31 -54 0
-31 -77 0
-31 -101 0
-31 -125 0
-31 -171 0
-31 -192 0
-31 -215 0
-54 -77 0
-54 -101 0
-54 -125 0
-54 -171 0
-54 -192 0
-54 -215 0
-77 -101 0
-77 -125 0
-77 -171 0
-77 -192 0
-77 -215 0
-101 -125 0
-101 -171 0
-101 -192 0
-101 -215 0
-125 -171 0
-125 -192 0
-125 -215 0
-171 -192 0
-171 -215 0
-192 -215 0
-10 -32 0
-10 -55 0
-10 -78 0
-10 -102 0
-10 -126 0
-10 -148 0
-10 -172 0
-10 -193 0
-10 -216 0
-32 -55 0
-32 -78 0
-32 -102 0
-32 -126 0
-32 -148 0
-32 -172 0
-32 -193 0
-32 -216 0
-55 -78 0
-55 -102 0
-55 -126 0
-55 -148 0
-55 -172 0
-55 -193 0
-55 -216 0
-78 -102 0
-78 -126 0
-78 -148 0
-78 -172 0
-78 -193 0
-78 -216 0
-102 -126 0
-102 -148 0
-102 -172 0
-102 -193 0
-102 -216 0
-126 -148 0
-126 -172 0
-126 -193 0
-126 -216 0
-148 -172 0
-148 -193 0
-148 -216 0
-172 -193 0
-172 -216 0
-193 -216 0
-11 -33 0
-11 -56 0
-11 -79 0
-11 -103 0
-11 -127 0
-11 -149 0
-11 -173 0
-11 -194 0
-11 -217 0
-33 -56 0
-33 -79 0
-33 -103 0
-33 -127 0
-33 -149 0
-33 -173 0
-33 -194 0
-33 -217 0
-56 -79 0
-56 -103 0
-56 -127 0
-56 -149 0
-56 -173 0
-56 -194 0
-56 -217 0
-79 -103 0
-79 -127 0
-79 -149 0
-79 -173 0
-79 -194 0
-79 -217 0
-103 -127 0
-103 -149 0
-103 -173 0
-103 -194 0
-103 -217 0
-127 -149 0
-127 -173 0
-127 -194 0
-127 -217 0
-149 -173 0
-149 -194 0
-149 -217 0
-173 -194 0
-173 -217 0
-194 -217 0
-12 -34 0
-12 -57 0
-12 -80 0
-12 -104 0
-12 -150 0
-12 -174 0
-12 -195 0
-12 -218 0
-34 -57 0
-34 -80 0
-34 -104 0
-34 -150 0
-34 -174 0
-34 -195 0
-34 -218 0
-57 -80 0
-57 -104 0
-57 -150 0
-57 -174 0
-57 -195 0
-57 -218 0
-80 -104 0
-80 -150 0
-80 -174 0
-80 -195 0
-80 -218 0
-104 -150 0
-104 -174 0
-104 -195 0
-104 -218 0
-150 -174 0
-150 -195 0
-150 -218 0
-174 -195 0
-174 -218 0
-195 -218 0
-13 -35 0
-13 -58 0
-13 -81 0
-13 -105 0
-13 -128 0
-13 -151 0
-13 -175 0
-13 -196 0
-13 -219 0
-35 -58 0
-35 -81 0
-35 -105 0
-35 -128 0
-35 -151 0
-35 -175 0
-35 -196 0
-35 -219 0
-58 -81 0
-58 -105 0
-58 -128 0
-58 -151 0
-58 -175 0
-58 -196 0
-58 -219 0
-81 -105 0
-81 -128 0
-81 -151 0
-81 -175 0
-81 -196 0
-81 -219 0
-105 -128 0
-105 -151 0
-105 -175 0
-105 -196 0
-105 -219 0
-128 -151 0
-128 -175 0
-128 -196 0
-128 -219 0
-151 -175 0
-151 -196 0
-151 -219 0
-175 -196 0
-175 -219 0
-196 -219 0
-14 -36 0
-14 -59 0
-14 -82 0
-14 -106 0
-14 -129 0
-14 -152 0
-14 -176 0
-14 -197 0
-14 -220 0
-36 -59 0
-36 -82 0
-36 -106 0
-36 -129 0
-36 -152 0
-36 -176 0
-36 -197 0
-36 -220 0
-59 -82 0
-59 -106 0
-59 -129 0
-59 -152 0
-59 -176 0
-59 -197 0
-59 -220 0
-82 -106 0
-82 -129 0
-82 -152 0
-82 -176 0
-82 -197 0
-82 -220 0
-106 -129 0
-106 -152 0
-106 -176 0
-106 -197 0
-106 -220 0
-129 -152 0
-129 -176 0
-129 -197 0
-129 -220 0
-152 -176 0
-152 -197 0
-152 -220 0
-176 -197 0
-176 -220 0
-197 -220 0
-37 -60 0
-37 -83 0
-37 -107 0
-37 -130 0
-37 -153 0
-37 -177 0
-37 -198 0
-37 -221 0
-60 -83 0
-60 -107 0
-60 -130 0
-60 -153 0
-60 -177 0
-60 -198 0
-60 -221 0
-83 -107 0
-83 -130 0
-83 -153 0
-83 -177 0
-83 -198 0
-83 -221 0
-107 -130 0
-107 -153 0
-107 -177 0
-107 -198 0
-107 -221 0
-130 -153 0
-130 -177 0
-130 -198 0
-130 -221 0
-153 -177 0
-153 -198 0
-153 -221 0
-177 -198 0
-177 -221 0
-198 -221 0
-15 -38 0
-15 -61 0
-15 -84 0
-15 -131 0
-15 -178 0
-15 -199 0
-38 -61 0
-38 -84 0
-38 -131 0
-38 -178 0
-38 -199 0
-61 -84 0
-61 -131 0
-61 -178 0
-61 -199 0
-84 -131 0
-84 -178 0
-84 -199 0
-131 -178 0
-131 -199 0
-178 -199 0
-16 -39 0
-16 -62 0
-16 -85 0
-16 -108 0
-16 -132 0
-16 -154 0
-39 -62 0
-39 -85 0
-39 -108 0
-39 -132 0
-39 -154 0
-62 -85 0
-62 -108 0
-62 -132 0
-62 -154 0
-85 -108 0
-85 -132 0
-85 -154 0
-108 -132 0
-108 -154 0
-132 -154 0
-17 -63 0
-17 -86 0
-17 -109 0
-17 -133 0
-17 -155 0
-17 -179 0
-17 -200 0
-17 -222 0
-63 -86 0
-63 -109 0
-63 -133 0
-63 -155 0
-63 -179 0
-63 -200 0
-63 -222 0
-86 -109 0
-86 -133 0
-86 -155 0
-86 -179 0
-86 -200 0
-86 -222 0
-109 -133 0
-109 -155 0
-109 -179 0
-109 -200 0
-109 -222 0
-133 -155 0
-133 -179 0
-133 -200 0
-133 -222 0
-155 -179 0
-155 -200 0
-155 -222 0
-179 -200 0
-179 -222 0
-200 -222 0
-18 -40 0
-18 -64 0
-18 -87 0
-18 -110 0
-18 -134 0
-18 -156 0
-18 -201 0
-18 -223 0
-40 -64 0
-40 -87 0
-40 -110 0
-40 -134 0
-40 -156 0
-40 -201 0
-40 -223 0
-64 -87 0
-64 -110 0
-64 -134 0
-64 -156 0
-64 -201 0
-64 -223 0
-87 -110 0
-87 -134 0
-87 -156 0
-87 -201 0
-87 -223 0
-110 -134 0
-110 -156 0
-110 -201 0
-110 -223 0
-134 -156 0
-134 -201 0
-134 -223 0
-156 -201 0
-156 -223 0
-201 -223 0
-19 -41 0
-19 -65 0
-19 -88 0
-19 -111 0
-19 -135 0
-19 -157 0
-19 -180 0
-19 -202 0
-19 -224 0
-41 -65 0
-41 -88 0
-41 -111 0
-41 -135 0
-41 -157 0
-41 -180 0
-41 -202 0
-41 -224 0
-65 -88 0
-65 -111 0
-65 -135 0
-65 -157 0
-65 -180 0
-65 -202 0
-65 -224 0
-88 -111 0
-88 -135 0
-88 -157 0
-88 -180 0
-88 -202 0
-88 -224 0
-111 -135 0
-111 -157 0
-111 -180 0
-111 -202 0
-111 -224 0
-135 -157 0
-135 -180 0
-135 -202 0
-135 -224 0
-157 -180 0
-157 -202 0
-157 -224 0
-180 -202 0
-180 -224 0
-202 -224 0
-20 -66 0
-20 -89 0
-20 -112 0
-20 -136 0
-20 -158 0
-20 -181 0
-20 -203 0
-20 -225 0
-66 -89 0
-66 -112 0
-66 -136 0
-66 -158 0
-66 -181 0
-66 -203 0
-66 -225 0
-89 -112 0
-89 -136 0
-89 -158 0
-89 -181 0
-89 -203 0
-89 -225 0
-112 -136 0
-112 -158 0
-112 -181 0
-112 -203 0
-112 -225 0
-136 -158 0
-136 -181 0
-136 -203 0
-136 -225 0
-158 -181 0
-158 -203 0
-158 -225 0
-181 -203 0
-181 -225 0
-203 -225 0
-21 -42 0
-21 -67 0
-21 -90 0
-21 -113 0
-21 -137 0
-21 -159 0
-21 -182 0
-21 -204 0
-21 -226 0
-42 -67 0
-42 -90 0
-42 -113 0
-42 -137 0
-42 -159 0
-42 -182 0
-42 -204 0
-42 -226 0
-67 -90 0
-67 -113 0
-67 -137 0
-67 -159 0
-67 -182 0
-67 -204 0
-67 -226 0
-90 -113 0
-90 -137 0
-90 -159 0
-90 -182 0
-90 -204 0
-90 -226 0
-113 -137 0
-113 -159 0
-113 -182 0
-113 -204 0
-113 -226 0
-137 -159 0
-137 -182 0
-137 -204 0
-137 -226 0
-159 -182 0
-159 -204 0
-159 -226 0
-182 -204 0
-182 -226 0
-204 -226 0
-22 -43 0
-22 -68 0
-22 -91 0
-22 -114 0
-22 -138 0
-22 -160 0
-22 -183 0
-22 -205 0
-22 -227 0
-43 -68 0
-43 -91 0
-43 -114 0
-43 -138 0
-43 -160 0
-43 -183 0
-43 -205 0
-43 -227 0
-68 -91 0
-68 -114 0
-68 -138 0
-68 -160 0
-68 -183 0
-68 -205 0
-68 -227 0
-91 -114 0
-91 -138 0
-91 -160 0
-91 -183 0
-91 -205 0
-91 -227 0
-114 -138 0
-114 -160 0
-114 -183 0
-114 -205 0
-114 -227 0
-138 -160 0
-138 -183 0
-138 -205 0
-138 -227 0
-160 -183 0
-160 -205 0
-160 -227 0
-183 -205 0
-183 -227 0
-205 -227 0
-44 -69 0
-44 -92 0
-44 -115 0
-44 -161 0
-44 -184 0
-44 -206 0
-44 -228 0
-69 -92 0
-69 -115 0
-69 -161 0
-69 -184 0
-69 -206 0
-69 -228 0
-92 -115 0
-92 -161 0
-92 -184 0
-92 -206 0
-92 -228 0
-115 -161 0
-115 -184 0
-115 -206 0
-115 -228 0
-161 -184 0
-161 -206 0
-161 -228 0
-184 -206 0
-184 -228 0
-206 -228 0